Comps = {frontend0, frontend1, frontend2, backend0, backend1, database0, database1};
mustComps = {frontend0, frontend1, frontend2};
Flavs = {tiny, medium, large};
Nodes = {n1, n2, n3};
CRes = {CPU, RAM, storage, bwIn, bwOut};
NRes = {ssl, fwall, encr, avail, latency};
Flav = [{medium, large}, {medium, large}, {medium, large}, {tiny, medium, large}, {tiny, medium, large}, {large}, {large}];
Uses = [{backend0}, {backend1}, {backend1}, {backend0}, {backend1}, {backend1}, {}, {}, {database1}, {database1}, {database1}, {database1}, {}, {}];
MAX_BOUND = 1000000;

worstBounds = [0, 0, 0, 0, 0, 0, 0, 0, 0, MAX_BOUND];
bestBounds = [MAX_BOUND - i | i in worstBounds];

comReq = array2d(CompFlavs, Res, [
  8, 326, 414, 882, 973, 1, 0, 1, 95, MAX_BOUND,
  2, 210, 474, 844, 236, 1, 0, 0, 96, MAX_BOUND,
  4, 276, 456, 367, 499, 1, 1, 1, 97, MAX_BOUND,
  8, 368, 347, 800, 611, 1, 1, 1, 97, MAX_BOUND,
  4, 324, 368, 508, 991, 1, 1, 1, 96, MAX_BOUND,
  8, 462, 248, 294, 938, 1, 0, 1, 96, MAX_BOUND,
  2, 244, 236, 385, 343, 1, 0, 1, 97, MAX_BOUND,
  2, 381, 318, 981, 455, 1, 0, 0, 96, MAX_BOUND,
  4, 308, 354, 791, 962, 1, 1, 0, 97, MAX_BOUND,
  2, 254, 229, 583, 758, 1, 0, 1, 96, MAX_BOUND,
  2, 450, 305, 810, 384, 0, 0, 1, 95, MAX_BOUND,
  2, 427, 347, 685, 584, 1, 1, 1, 97, MAX_BOUND,
  2, 293, 223, 267, 672, 1, 1, 1, 96, MAX_BOUND,
  2, 370, 486, 592, 206, 1, 0, 1, 97, MAX_BOUND,
]);

nodeCap = array2d(Nodes0, Res, [bestBounds[r] | r in Res] ++ [
  32, 126427, 822468, 20458, 11447, 1, 1, 1, 99, 0,
  32, 38045, 767592, 19281, 20495, 1, 1, 1, 98, 0,
  16, 48042, 656314, 22435, 22259, 1, 1, 1, 98, 0,
]);

cost = array2d(Nodes0, Res, [
  0, 0, 0, 0, 0, 0, 0, 0, 0, 0, % no node
  14, 6, 23, 0, 0, 0, 0, 0, 0, 0,
  14, 10, 22, 0, 0, 0, 0, 0, 0, 0,
  15, 9, 15, 0, 0, 0, 0, 0, 0, 0,
]);

cons = array2d(Nodes0, Res, [
  0, 0, 0, 0, 0, 0, 0, 0, 0, 0, % no node
  38, 30, 30, 0, 0, 0, 0, 0, 0, 0,
  34, 17, 1, 0, 0, 0, 0, 0, 0, 0,
  38, 9, 42, 0, 0, 0, 0, 0, 0, 0,
]);

costWeight = 0;
consWeight = 1;

costBudget = 68649;
consBudget = 55939;

depReq = array3d(Comps, Comps, Res, [
  if c1 = frontend2 /\ c2 = backend0 /\ r = N(avail) then
    96
  elseif c1 = frontend0 /\ c2 = backend0 /\ r = N(avail) then
    97
  elseif c1 = frontend2 /\ c2 = backend1 /\ r = N(avail) then
    96
  elseif c1 = frontend0 /\ c2 = backend1 /\ r = N(avail) then
    97
  elseif c1 = frontend1 /\ c2 = backend1 /\ r = N(avail) then
    96
  elseif c1 = frontend1 /\ c2 = backend0 /\ r = N(avail) then
    97
  else
    worstBounds[r]
  endif | c1 in Comps, c2 in Comps, r in Res]);

linkCap = array3d(Nodes0, Nodes0, Res, [
  if ni = 0 \/ nj = 0 then
    bestBounds[r]
  elseif ni = nj /\ r = N(avail) then
    nodeCap[ni,r]
  elseif {ni, nj} = {n1, n3} /\ r = N(avail) then
    99
  elseif {ni, nj} = {n1, n2} /\ r = N(avail) then
    98
  elseif {ni, nj} = {n2, n3} /\ r = N(avail) then
    99
  else
    worstBounds[r]
  endif | ni in Nodes0, nj in Nodes0, r in Res]);

imp = array2d(Comps, Flavs, [
  7, 8, 9,
  1, 5, 7,
  2, 8, 10,
  3, 5, 9,
  2, 5, 6,
  4, 7, 10,
  4, 9, 10,
]);

